problem_generation/data/GISP/train/er_n=61_m=1145_p=0.60_SET2_setparam=100.00_alpha=0.50_678.lp
maximize
OBJ:100x0 + 100x1 + 100x2 + 100x3 + 100x4 + 100x5 + 100x6 + 100x7 + 100x8 + 100x9 + 100x10 + 100x11 + 100x12 + 100x13 + 100x14 + 100x15 + 100x16 + 100x17 + 100x18 + 100x19 + 100x20 + 100x21 + 100x22 + 100x23 + 100x24 + 100x25 + 100x26 + 100x27 + 100x28 + 100x29 + 100x30 + 100x31 + 100x32 + 100x33 + 100x34 + 100x35 + 100x36 + 100x37 + 100x38 + 100x39 + 100x40 + 100x41 + 100x42 + 100x43 + 100x44 + 100x45 + 100x46 + 100x47 + 100x48 + 100x49 + 100x50 + 100x51 + 100x52 + 100x53 + 100x54 + 100x55 + 100x56 + 100x57 + 100x58 + 100x59 + 100x60 - y18_44 - y40_41 - y0_14 - y6_48 - y21_46 - y11_23 - y29_59 - y21_55 - y41_51 - y33_47 - y33_56 - y44_56 - y22_28 - y22_37 - y14_42 - y15_16 - y15_25 - y18_21 - y47_57 - y7_30 - y9_58 - y48_49 - y6_43 - y40_54 - y10_22 - y10_31 - y25_29 - y10_40 - y33_42 - y2_45 - y2_54 - y14_28 - y24_60 - y35_60 - y36_43 - y7_16 - y5_46 - y28_57 - y6_29 - y29_31 - y21_27 - y21_36 - y29_49 - y10_35 - y10_44 - y2_40 - y25_42 - y32_41 - y51_54 - y3_14 - y24_46 - y3_23 - y43_59 - y17_25 - y9_30 - y55_60 - y47_56 - y9_57 - y6_42 - y6_51 - y20_53 - y10_30 - y10_39 - y23_58 - y43_45 - y35_41 - y3_18 - y17_20 - y5_27 - y9_25 - y36_51 - y28_47 - y28_56 - y6_19 - y9_52 - y50_53 - y29_30 - y21_26 - y42_58 - y2_3 - y20_39 - y39_52 - y2_12 - y10_25 - y4_49 - y13_27 - y3_4 - y4_58 - y13_36 - y43_49 - y16_32 - y1_43 - y13_45 - y32_58 - y43_58 - y16_50 - y9_11 - y5_22 - y46_60 - y9_20 - y28_33 - y6_23 - y42_53 - y20_34 - y10_11 - y31_43 - y39_56 - y12_39 - y23_39 - y24_31 - y43_44 - y13_40 - y35_40 - y1_47 - y13_49 - y16_45 - y38_51 - y5_35 - y17_37 - y28_37 - y9_33 - y27_41 - y6_18 - y19_46 - y8_55 - y19_55 - y30_55 - y20_29 - y0_60 - y23_25 - y2_11 - y12_43 - y20_56 - y12_52 - y16_22 - y1_33 - y13_35 - y24_35 - y16_31 - y9_19 - y9_28 - y8_32 - y42_43 - y11_37 - y42_52 - y0_46 - y8_59 - y0_55 - y11_55 - y12_20 - y20_33 - y23_29 - y23_38 - y31_51 - y4_34 - y12_47 - y12_56 - y1_19 - y53_57 - y4_52 - y16_17 - y45_53 - y16_26 - y22_60 - y1_37 - y37_58 - y16_35 - y5_7 - y9_14 - y26_48 - y7_44 - y15_57 - y49_59 - y8_27 - y8_45 - y0_41 - y19_54 - y30_54 - y39_41 - y41_60 - y12_33 - y4_29 - y34_39 - y1_14 - y13_16 - y34_48 - y1_23 - y24_25 - y56_57 - y3_51 - y37_53 - y15_43 - y38_45 - y46_58 - y18_39 - y15_52 - y7_48 - y8_13 - y27_35 - y11_18 - y19_31 - y27_44 - y19_40 - y0_36 - y8_49 - y19_49 - y30_49 - y11_45 - y20_23 - y4_6 - y23_28 - y44_60 - y23_37 - y4_33 - y1_9 - y34_52 - y14_46 - y37_48 - y22_59 - y14_55 - y15_29 - y26_29 - y18_25 - y38_40 - y18_34 - y26_47 - y18_43 - y15_56 - y0_4 - y7_52 - y27_30 - y0_13 - y30_35 - y0_31 - y30_44 - y0_40 - y4_10 - y4_19 - y10_53 - y25_51 - y1_4 - y34_38 - y14_41 - y45_56 - y37_52 - y14_59 - y15_33 - y7_29 - y18_38 - y15_51 - y26_51 - y18_56 - y8_30 - y4_5 - y25_37 - y25_46 - y33_59 - y44_59 - y22_49 - y14_45 - y37_47 - y22_58 - y15_19 - y7_15 - y15_28 - y26_28 - y7_24 - y47_60 - y18_33 - y18_42 - y11_12 - y40_57 - y10_43 - y41_58 - y33_54 - y25_50 - y3_22 - y22_35 - y3_31 - y22_44 - y3_40 - y22_53 - y14_49 - y36_46 - y55_59 - y36_55 - y47_55 - y18_28 - y29_34 - y8_11 - y29_43 - y40_43 - y21_48 - y10_29 - y33_40 - y33_49 - y2_52 - y32_53 - y22_30 - y14_26 - y22_39 - y14_35 - y15_18 - y18_23 - y47_59 - y5_53 - y17_55 - y28_55 - y6_27 - y0_2 - y21_43 - y10_24 - y10_33 - y2_38 - y10_51 - y51_52 - y22_25 - y14_21 - y24_53 - y35_53 - y17_32 - y7_9 - y36_45 - y28_41 - y47_54 - y9_37 - y9_46 - y6_58 - y2_6 - y10_19 - y39_55 - y10_28 - y20_60 - y2_33 - y25_35 - y32_43 - y13_39 - y32_52 - y3_25 - y14_25 - y17_27 - y28_45 - y47_58 - y17_54 - y9_50 - y6_26 - y21_24 - y39_50 - y10_23 - y12_60 - y4_56 - y32_38 - y24_34 - y3_11 - y32_47 - y35_43 - y24_52 - y35_52 - y5_20 - y9_18 - y28_40 - y17_49 - y6_12 - y9_45 - y6_30 - y6_39 - y8_58 - y31_41 - y10_18 - y2_14 - y4_51 - y32_33 - y13_29 - y24_29 - y4_60 - y16_25 - y51_55 - y1_36 - y13_38 - y43_51 - y13_47 - y16_43 - y13_56 - y24_56 - y35_56 - y16_52 - y46_53 - y49_58 - y5_42 - y5_51 - y6_16 - y6_25 - y42_46 - y50_59 - y19_53 - y20_27 - y11_58 - y10_13 - y39_49 - y31_45 - y12_41 - y2_18 - y20_54 - y31_54 - y23_50 - y54_56 - y4_46 - y53_60 - y32_37 - y16_20 - y1_31 - y13_33 - y32_46 - y43_46 - y24_42 - y35_42 - y16_38 - y1_58 - y17_21 - y9_17 - y38_53 - y17_30 - y28_30 - y26_60 - y6_20 - y8_39 - y30_39 - y50_54 - y19_48 - y8_57 - y12_18 - y20_40 - y4_23 - y12_45 - y1_8 - y31_58 - y4_41 - y1_17 - y53_55 - y1_26 - y13_28 - y16_24 - y56_60 - y24_37 - y16_33 - y1_44 - y38_39 - y46_52 - y5_23 - y15_55 - y38_57 - y7_51 - y7_60 - y8_25 - y27_38 - y8_34 - y0_39 - y11_39 - y19_52 - y12_13 - y0_57 - y12_31 - y4_27 - y12_40 - y23_40 - y4_45 - y34_46 - y53_59 - y1_30 - y15_41 - y38_43 - y5_18 - y15_50 - y26_50 - y38_52 - y11_25 - y8_38 - y11_34 - y8_47 - y19_47 - y11_43 - y8_56 - y30_56 - y23_35 - y4_31 - y13_18 - y34_50 - y45_50 - y1_25 - y22_57 - y34_59 - y14_53 - y15_36 - y7_32 - y26_54 - y7_50 - y18_50 - y27_28 - y7_59 - y27_37 - y0_29 - y11_38 - y20_25 - y41_57 - y12_30 - y4_35 - y34_36 - y22_43 - y34_45 - y3_39 - y37_41 - y22_52 - y3_48 - y37_50 - y15_22 - y7_18 - y37_49 - y38_42 - y0_15 - y8_28 - y0_24 - y40_60 - y8_37 - y19_37 - y30_37 - y11_33 - y33_39 - y4_12 - y25_44 - y10_55 - y22_29 - y22_47 - y45_49 - y37_45 - y45_58 - y14_52 - y18_22 - y15_44 - y8_14 - y48_50 - y0_10 - y40_46 - y48_59 - y21_51 - y25_30 - y10_50 - y2_46 - y34_35 - y14_29 - y14_38 - y37_40 - y3_47
 Subject to
C1: x0+x1 <=1 
C2: x0+x2-y0_2 <=1 
C3: x0+x3 <=1 
C4: x0+x4-y0_4 <=1 
C5: x0+x5 <=1 
C6: x0+x9 <=1 
C7: x0+x10-y0_10 <=1 
C8: x0+x12 <=1 
C9: x0+x13-y0_13 <=1 
C10: x0+x14-y0_14 <=1 
C11: x0+x15-y0_15 <=1 
C12: x0+x16 <=1 
C13: x0+x19 <=1 
C14: x0+x21 <=1 
C15: x0+x23 <=1 
C16: x0+x24-y0_24 <=1 
C17: x0+x25 <=1 
C18: x0+x27 <=1 
C19: x0+x28 <=1 
C20: x0+x29-y0_29 <=1 
C21: x0+x30 <=1 
C22: x0+x31-y0_31 <=1 
C23: x0+x32 <=1 
C24: x0+x34 <=1 
C25: x0+x36-y0_36 <=1 
C26: x0+x38 <=1 
C27: x0+x39-y0_39 <=1 
C28: x0+x40-y0_40 <=1 
C29: x0+x41-y0_41 <=1 
C30: x0+x43 <=1 
C31: x0+x44 <=1 
C32: x0+x45 <=1 
C33: x0+x46-y0_46 <=1 
C34: x0+x47 <=1 
C35: x0+x48 <=1 
C36: x0+x49 <=1 
C37: x0+x53 <=1 
C38: x0+x54 <=1 
C39: x0+x55-y0_55 <=1 
C40: x0+x56 <=1 
C41: x0+x57-y0_57 <=1 
C42: x0+x58 <=1 
C43: x0+x59 <=1 
C44: x0+x60-y0_60 <=1 
C45: x1+x4-y1_4 <=1 
C46: x1+x8-y1_8 <=1 
C47: x1+x9-y1_9 <=1 
C48: x1+x10 <=1 
C49: x1+x12 <=1 
C50: x1+x14-y1_14 <=1 
C51: x1+x17-y1_17 <=1 
C52: x1+x19-y1_19 <=1 
C53: x1+x20 <=1 
C54: x1+x21 <=1 
C55: x1+x22 <=1 
C56: x1+x23-y1_23 <=1 
C57: x1+x24 <=1 
C58: x1+x25-y1_25 <=1 
C59: x1+x26-y1_26 <=1 
C60: x1+x27 <=1 
C61: x1+x29 <=1 
C62: x1+x30-y1_30 <=1 
C63: x1+x31-y1_31 <=1 
C64: x1+x32 <=1 
C65: x1+x33-y1_33 <=1 
C66: x1+x36-y1_36 <=1 
C67: x1+x37-y1_37 <=1 
C68: x1+x40 <=1 
C69: x1+x42 <=1 
C70: x1+x43-y1_43 <=1 
C71: x1+x44-y1_44 <=1 
C72: x1+x45 <=1 
C73: x1+x47-y1_47 <=1 
C74: x1+x48 <=1 
C75: x1+x51 <=1 
C76: x1+x54 <=1 
C77: x1+x55 <=1 
C78: x1+x57 <=1 
C79: x1+x58-y1_58 <=1 
C80: x1+x60 <=1 
C81: x2+x3-y2_3 <=1 
C82: x2+x5 <=1 
C83: x2+x6-y2_6 <=1 
C84: x2+x7 <=1 
C85: x2+x11-y2_11 <=1 
C86: x2+x12-y2_12 <=1 
C87: x2+x14-y2_14 <=1 
C88: x2+x18-y2_18 <=1 
C89: x2+x19 <=1 
C90: x2+x20 <=1 
C91: x2+x21 <=1 
C92: x2+x22 <=1 
C93: x2+x23 <=1 
C94: x2+x25 <=1 
C95: x2+x27 <=1 
C96: x2+x28 <=1 
C97: x2+x31 <=1 
C98: x2+x32 <=1 
C99: x2+x33-y2_33 <=1 
C100: x2+x34 <=1 
C101: x2+x35 <=1 
C102: x2+x36 <=1 
C103: x2+x37 <=1 
C104: x2+x38-y2_38 <=1 
C105: x2+x39 <=1 
C106: x2+x40-y2_40 <=1 
C107: x2+x41 <=1 
C108: x2+x44 <=1 
C109: x2+x45-y2_45 <=1 
C110: x2+x46-y2_46 <=1 
C111: x2+x50 <=1 
C112: x2+x52-y2_52 <=1 
C113: x2+x53 <=1 
C114: x2+x54-y2_54 <=1 
C115: x2+x57 <=1 
C116: x2+x59 <=1 
C117: x2+x60 <=1 
C118: x3+x4-y3_4 <=1 
C119: x3+x7 <=1 
C120: x3+x11-y3_11 <=1 
C121: x3+x12 <=1 
C122: x3+x13 <=1 
C123: x3+x14-y3_14 <=1 
C124: x3+x15 <=1 
C125: x3+x16 <=1 
C126: x3+x18-y3_18 <=1 
C127: x3+x19 <=1 
C128: x3+x22-y3_22 <=1 
C129: x3+x23-y3_23 <=1 
C130: x3+x25-y3_25 <=1 
C131: x3+x26 <=1 
C132: x3+x29 <=1 
C133: x3+x30 <=1 
C134: x3+x31-y3_31 <=1 
C135: x3+x32 <=1 
C136: x3+x34 <=1 
C137: x3+x35 <=1 
C138: x3+x37 <=1 
C139: x3+x38 <=1 
C140: x3+x39-y3_39 <=1 
C141: x3+x40-y3_40 <=1 
C142: x3+x44 <=1 
C143: x3+x46 <=1 
C144: x3+x47-y3_47 <=1 
C145: x3+x48-y3_48 <=1 
C146: x3+x49 <=1 
C147: x3+x51-y3_51 <=1 
C148: x3+x58 <=1 
C149: x3+x59 <=1 
C150: x3+x60 <=1 
C151: x4+x5-y4_5 <=1 
C152: x4+x6-y4_6 <=1 
C153: x4+x7 <=1 
C154: x4+x8 <=1 
C155: x4+x9 <=1 
C156: x4+x10-y4_10 <=1 
C157: x4+x11 <=1 
C158: x4+x12-y4_12 <=1 
C159: x4+x15 <=1 
C160: x4+x17 <=1 
C161: x4+x19-y4_19 <=1 
C162: x4+x23-y4_23 <=1 
C163: x4+x25 <=1 
C164: x4+x26 <=1 
C165: x4+x27-y4_27 <=1 
C166: x4+x29-y4_29 <=1 
C167: x4+x31-y4_31 <=1 
C168: x4+x33-y4_33 <=1 
C169: x4+x34-y4_34 <=1 
C170: x4+x35-y4_35 <=1 
C171: x4+x39 <=1 
C172: x4+x40 <=1 
C173: x4+x41-y4_41 <=1 
C174: x4+x44 <=1 
C175: x4+x45-y4_45 <=1 
C176: x4+x46-y4_46 <=1 
C177: x4+x48 <=1 
C178: x4+x49-y4_49 <=1 
C179: x4+x51-y4_51 <=1 
C180: x4+x52-y4_52 <=1 
C181: x4+x56-y4_56 <=1 
C182: x4+x58-y4_58 <=1 
C183: x4+x60-y4_60 <=1 
C184: x5+x7-y5_7 <=1 
C185: x5+x9 <=1 
C186: x5+x10 <=1 
C187: x5+x12 <=1 
C188: x5+x14 <=1 
C189: x5+x16 <=1 
C190: x5+x17 <=1 
C191: x5+x18-y5_18 <=1 
C192: x5+x19 <=1 
C193: x5+x20-y5_20 <=1 
C194: x5+x22-y5_22 <=1 
C195: x5+x23-y5_23 <=1 
C196: x5+x24 <=1 
C197: x5+x25 <=1 
C198: x5+x26 <=1 
C199: x5+x27-y5_27 <=1 
C200: x5+x29 <=1 
C201: x5+x31 <=1 
C202: x5+x33 <=1 
C203: x5+x34 <=1 
C204: x5+x35-y5_35 <=1 
C205: x5+x36 <=1 
C206: x5+x37 <=1 
C207: x5+x39 <=1 
C208: x5+x41 <=1 
C209: x5+x42-y5_42 <=1 
C210: x5+x43 <=1 
C211: x5+x46-y5_46 <=1 
C212: x5+x47 <=1 
C213: x5+x48 <=1 
C214: x5+x51-y5_51 <=1 
C215: x5+x53-y5_53 <=1 
C216: x5+x54 <=1 
C217: x5+x55 <=1 
C218: x5+x56 <=1 
C219: x5+x57 <=1 
C220: x6+x8 <=1 
C221: x6+x10 <=1 
C222: x6+x11 <=1 
C223: x6+x12-y6_12 <=1 
C224: x6+x13 <=1 
C225: x6+x16-y6_16 <=1 
C226: x6+x17 <=1 
C227: x6+x18-y6_18 <=1 
C228: x6+x19-y6_19 <=1 
C229: x6+x20-y6_20 <=1 
C230: x6+x23-y6_23 <=1 
C231: x6+x24 <=1 
C232: x6+x25-y6_25 <=1 
C233: x6+x26-y6_26 <=1 
C234: x6+x27-y6_27 <=1 
C235: x6+x29-y6_29 <=1 
C236: x6+x30-y6_30 <=1 
C237: x6+x32 <=1 
C238: x6+x33 <=1 
C239: x6+x34 <=1 
C240: x6+x35 <=1 
C241: x6+x38 <=1 
C242: x6+x39-y6_39 <=1 
C243: x6+x41 <=1 
C244: x6+x42-y6_42 <=1 
C245: x6+x43-y6_43 <=1 
C246: x6+x45 <=1 
C247: x6+x47 <=1 
C248: x6+x48-y6_48 <=1 
C249: x6+x50 <=1 
C250: x6+x51-y6_51 <=1 
C251: x6+x52 <=1 
C252: x6+x54 <=1 
C253: x6+x55 <=1 
C254: x6+x57 <=1 
C255: x6+x58-y6_58 <=1 
C256: x6+x59 <=1 
C257: x6+x60 <=1 
C258: x7+x8 <=1 
C259: x7+x9-y7_9 <=1 
C260: x7+x10 <=1 
C261: x7+x15-y7_15 <=1 
C262: x7+x16-y7_16 <=1 
C263: x7+x18-y7_18 <=1 
C264: x7+x19 <=1 
C265: x7+x21 <=1 
C266: x7+x23 <=1 
C267: x7+x24-y7_24 <=1 
C268: x7+x25 <=1 
C269: x7+x26 <=1 
C270: x7+x27 <=1 
C271: x7+x28 <=1 
C272: x7+x29-y7_29 <=1 
C273: x7+x30-y7_30 <=1 
C274: x7+x32-y7_32 <=1 
C275: x7+x34 <=1 
C276: x7+x35 <=1 
C277: x7+x36 <=1 
C278: x7+x37 <=1 
C279: x7+x39 <=1 
C280: x7+x40 <=1 
C281: x7+x44-y7_44 <=1 
C282: x7+x45 <=1 
C283: x7+x48-y7_48 <=1 
C284: x7+x50-y7_50 <=1 
C285: x7+x51-y7_51 <=1 
C286: x7+x52-y7_52 <=1 
C287: x7+x53 <=1 
C288: x7+x54 <=1 
C289: x7+x57 <=1 
C290: x7+x59-y7_59 <=1 
C291: x7+x60-y7_60 <=1 
C292: x8+x9 <=1 
C293: x8+x11-y8_11 <=1 
C294: x8+x12 <=1 
C295: x8+x13-y8_13 <=1 
C296: x8+x14-y8_14 <=1 
C297: x8+x15 <=1 
C298: x8+x17 <=1 
C299: x8+x20 <=1 
C300: x8+x21 <=1 
C301: x8+x24 <=1 
C302: x8+x25-y8_25 <=1 
C303: x8+x27-y8_27 <=1 
C304: x8+x28-y8_28 <=1 
C305: x8+x29 <=1 
C306: x8+x30-y8_30 <=1 
C307: x8+x32-y8_32 <=1 
C308: x8+x33 <=1 
C309: x8+x34-y8_34 <=1 
C310: x8+x37-y8_37 <=1 
C311: x8+x38-y8_38 <=1 
C312: x8+x39-y8_39 <=1 
C313: x8+x40 <=1 
C314: x8+x41 <=1 
C315: x8+x42 <=1 
C316: x8+x44 <=1 
C317: x8+x45-y8_45 <=1 
C318: x8+x47-y8_47 <=1 
C319: x8+x49-y8_49 <=1 
C320: x8+x53 <=1 
C321: x8+x54 <=1 
C322: x8+x55-y8_55 <=1 
C323: x8+x56-y8_56 <=1 
C324: x8+x57-y8_57 <=1 
C325: x8+x58-y8_58 <=1 
C326: x8+x59-y8_59 <=1 
C327: x8+x60 <=1 
C328: x9+x11-y9_11 <=1 
C329: x9+x12 <=1 
C330: x9+x14-y9_14 <=1 
C331: x9+x16 <=1 
C332: x9+x17-y9_17 <=1 
C333: x9+x18-y9_18 <=1 
C334: x9+x19-y9_19 <=1 
C335: x9+x20-y9_20 <=1 
C336: x9+x23 <=1 
C337: x9+x25-y9_25 <=1 
C338: x9+x26 <=1 
C339: x9+x27 <=1 
C340: x9+x28-y9_28 <=1 
C341: x9+x29 <=1 
C342: x9+x30-y9_30 <=1 
C343: x9+x33-y9_33 <=1 
C344: x9+x37-y9_37 <=1 
C345: x9+x38 <=1 
C346: x9+x39 <=1 
C347: x9+x40 <=1 
C348: x9+x44 <=1 
C349: x9+x45-y9_45 <=1 
C350: x9+x46-y9_46 <=1 
C351: x9+x48 <=1 
C352: x9+x49 <=1 
C353: x9+x50-y9_50 <=1 
C354: x9+x51 <=1 
C355: x9+x52-y9_52 <=1 
C356: x9+x55 <=1 
C357: x9+x57-y9_57 <=1 
C358: x9+x58-y9_58 <=1 
C359: x9+x59 <=1 
C360: x10+x11-y10_11 <=1 
C361: x10+x13-y10_13 <=1 
C362: x10+x15 <=1 
C363: x10+x16 <=1 
C364: x10+x17 <=1 
C365: x10+x18-y10_18 <=1 
C366: x10+x19-y10_19 <=1 
C367: x10+x20 <=1 
C368: x10+x21 <=1 
C369: x10+x22-y10_22 <=1 
C370: x10+x23-y10_23 <=1 
C371: x10+x24-y10_24 <=1 
C372: x10+x25-y10_25 <=1 
C373: x10+x26 <=1 
C374: x10+x27 <=1 
C375: x10+x28-y10_28 <=1 
C376: x10+x29-y10_29 <=1 
C377: x10+x30-y10_30 <=1 
C378: x10+x31-y10_31 <=1 
C379: x10+x33-y10_33 <=1 
C380: x10+x35-y10_35 <=1 
C381: x10+x36 <=1 
C382: x10+x38 <=1 
C383: x10+x39-y10_39 <=1 
C384: x10+x40-y10_40 <=1 
C385: x10+x41 <=1 
C386: x10+x43-y10_43 <=1 
C387: x10+x44-y10_44 <=1 
C388: x10+x48 <=1 
C389: x10+x50-y10_50 <=1 
C390: x10+x51-y10_51 <=1 
C391: x10+x53-y10_53 <=1 
C392: x10+x55-y10_55 <=1 
C393: x10+x56 <=1 
C394: x10+x57 <=1 
C395: x11+x12-y11_12 <=1 
C396: x11+x14 <=1 
C397: x11+x15 <=1 
C398: x11+x17 <=1 
C399: x11+x18-y11_18 <=1 
C400: x11+x20 <=1 
C401: x11+x23-y11_23 <=1 
C402: x11+x24 <=1 
C403: x11+x25-y11_25 <=1 
C404: x11+x27 <=1 
C405: x11+x28 <=1 
C406: x11+x29 <=1 
C407: x11+x31 <=1 
C408: x11+x32 <=1 
C409: x11+x33-y11_33 <=1 
C410: x11+x34-y11_34 <=1 
C411: x11+x35 <=1 
C412: x11+x37-y11_37 <=1 
C413: x11+x38-y11_38 <=1 
C414: x11+x39-y11_39 <=1 
C415: x11+x41 <=1 
C416: x11+x43-y11_43 <=1 
C417: x11+x44 <=1 
C418: x11+x45-y11_45 <=1 
C419: x11+x47 <=1 
C420: x11+x48 <=1 
C421: x11+x54 <=1 
C422: x11+x55-y11_55 <=1 
C423: x11+x58-y11_58 <=1 
C424: x11+x59 <=1 
C425: x12+x13-y12_13 <=1 
C426: x12+x15 <=1 
C427: x12+x16 <=1 
C428: x12+x17 <=1 
C429: x12+x18-y12_18 <=1 
C430: x12+x19 <=1 
C431: x12+x20-y12_20 <=1 
C432: x12+x21 <=1 
C433: x12+x23 <=1 
C434: x12+x24 <=1 
C435: x12+x26 <=1 
C436: x12+x30-y12_30 <=1 
C437: x12+x31-y12_31 <=1 
C438: x12+x33-y12_33 <=1 
C439: x12+x35 <=1 
C440: x12+x36 <=1 
C441: x12+x37 <=1 
C442: x12+x39-y12_39 <=1 
C443: x12+x40-y12_40 <=1 
C444: x12+x41-y12_41 <=1 
C445: x12+x43-y12_43 <=1 
C446: x12+x44 <=1 
C447: x12+x45-y12_45 <=1 
C448: x12+x46 <=1 
C449: x12+x47-y12_47 <=1 
C450: x12+x49 <=1 
C451: x12+x50 <=1 
C452: x12+x51 <=1 
C453: x12+x52-y12_52 <=1 
C454: x12+x53 <=1 
C455: x12+x55 <=1 
C456: x12+x56-y12_56 <=1 
C457: x12+x59 <=1 
C458: x12+x60-y12_60 <=1 
C459: x13+x16-y13_16 <=1 
C460: x13+x18-y13_18 <=1 
C461: x13+x19 <=1 
C462: x13+x20 <=1 
C463: x13+x21 <=1 
C464: x13+x23 <=1 
C465: x13+x27-y13_27 <=1 
C466: x13+x28-y13_28 <=1 
C467: x13+x29-y13_29 <=1 
C468: x13+x33-y13_33 <=1 
C469: x13+x35-y13_35 <=1 
C470: x13+x36-y13_36 <=1 
C471: x13+x38-y13_38 <=1 
C472: x13+x39-y13_39 <=1 
C473: x13+x40-y13_40 <=1 
C474: x13+x42 <=1 
C475: x13+x45-y13_45 <=1 
C476: x13+x47-y13_47 <=1 
C477: x13+x48 <=1 
C478: x13+x49-y13_49 <=1 
C479: x13+x50 <=1 
C480: x13+x51 <=1 
C481: x13+x54 <=1 
C482: x13+x56-y13_56 <=1 
C483: x13+x57 <=1 
C484: x14+x15 <=1 
C485: x14+x17 <=1 
C486: x14+x18 <=1 
C487: x14+x19 <=1 
C488: x14+x20 <=1 
C489: x14+x21-y14_21 <=1 
C490: x14+x23 <=1 
C491: x14+x25-y14_25 <=1 
C492: x14+x26-y14_26 <=1 
C493: x14+x28-y14_28 <=1 
C494: x14+x29-y14_29 <=1 
C495: x14+x31 <=1 
C496: x14+x33 <=1 
C497: x14+x35-y14_35 <=1 
C498: x14+x36 <=1 
C499: x14+x38-y14_38 <=1 
C500: x14+x39 <=1 
C501: x14+x41-y14_41 <=1 
C502: x14+x42-y14_42 <=1 
C503: x14+x43 <=1 
C504: x14+x44 <=1 
C505: x14+x45-y14_45 <=1 
C506: x14+x46-y14_46 <=1 
C507: x14+x47 <=1 
C508: x14+x48 <=1 
C509: x14+x49-y14_49 <=1 
C510: x14+x50 <=1 
C511: x14+x51 <=1 
C512: x14+x52-y14_52 <=1 
C513: x14+x53-y14_53 <=1 
C514: x14+x54 <=1 
C515: x14+x55-y14_55 <=1 
C516: x14+x56 <=1 
C517: x14+x59-y14_59 <=1 
C518: x15+x16-y15_16 <=1 
C519: x15+x18-y15_18 <=1 
C520: x15+x19-y15_19 <=1 
C521: x15+x22-y15_22 <=1 
C522: x15+x24 <=1 
C523: x15+x25-y15_25 <=1 
C524: x15+x26 <=1 
C525: x15+x27 <=1 
C526: x15+x28-y15_28 <=1 
C527: x15+x29-y15_29 <=1 
C528: x15+x32 <=1 
C529: x15+x33-y15_33 <=1 
C530: x15+x34 <=1 
C531: x15+x36-y15_36 <=1 
C532: x15+x39 <=1 
C533: x15+x40 <=1 
C534: x15+x41-y15_41 <=1 
C535: x15+x42 <=1 
C536: x15+x43-y15_43 <=1 
C537: x15+x44-y15_44 <=1 
C538: x15+x47 <=1 
C539: x15+x49 <=1 
C540: x15+x50-y15_50 <=1 
C541: x15+x51-y15_51 <=1 
C542: x15+x52-y15_52 <=1 
C543: x15+x55-y15_55 <=1 
C544: x15+x56-y15_56 <=1 
C545: x15+x57-y15_57 <=1 
C546: x16+x17-y16_17 <=1 
C547: x16+x20-y16_20 <=1 
C548: x16+x21 <=1 
C549: x16+x22-y16_22 <=1 
C550: x16+x23 <=1 
C551: x16+x24-y16_24 <=1 
C552: x16+x25-y16_25 <=1 
C553: x16+x26-y16_26 <=1 
C554: x16+x28 <=1 
C555: x16+x29 <=1 
C556: x16+x30 <=1 
C557: x16+x31-y16_31 <=1 
C558: x16+x32-y16_32 <=1 
C559: x16+x33-y16_33 <=1 
C560: x16+x34 <=1 
C561: x16+x35-y16_35 <=1 
C562: x16+x38-y16_38 <=1 
C563: x16+x40 <=1 
C564: x16+x42 <=1 
C565: x16+x43-y16_43 <=1 
C566: x16+x44 <=1 
C567: x16+x45-y16_45 <=1 
C568: x16+x46 <=1 
C569: x16+x50-y16_50 <=1 
C570: x16+x51 <=1 
C571: x16+x52-y16_52 <=1 
C572: x16+x53 <=1 
C573: x16+x57 <=1 
C574: x17+x19 <=1 
C575: x17+x20-y17_20 <=1 
C576: x17+x21-y17_21 <=1 
C577: x17+x22 <=1 
C578: x17+x23 <=1 
C579: x17+x25-y17_25 <=1 
C580: x17+x27-y17_27 <=1 
C581: x17+x30-y17_30 <=1 
C582: x17+x32-y17_32 <=1 
C583: x17+x33 <=1 
C584: x17+x34 <=1 
C585: x17+x37-y17_37 <=1 
C586: x17+x40 <=1 
C587: x17+x45 <=1 
C588: x17+x46 <=1 
C589: x17+x48 <=1 
C590: x17+x49-y17_49 <=1 
C591: x17+x54-y17_54 <=1 
C592: x17+x55-y17_55 <=1 
C593: x17+x58 <=1 
C594: x17+x59 <=1 
C595: x17+x60 <=1 
C596: x18+x21-y18_21 <=1 
C597: x18+x22-y18_22 <=1 
C598: x18+x23-y18_23 <=1 
C599: x18+x25-y18_25 <=1 
C600: x18+x26 <=1 
C601: x18+x27 <=1 
C602: x18+x28-y18_28 <=1 
C603: x18+x29 <=1 
C604: x18+x30 <=1 
C605: x18+x31 <=1 
C606: x18+x32 <=1 
C607: x18+x33-y18_33 <=1 
C608: x18+x34-y18_34 <=1 
C609: x18+x35 <=1 
C610: x18+x36 <=1 
C611: x18+x37 <=1 
C612: x18+x38-y18_38 <=1 
C613: x18+x39-y18_39 <=1 
C614: x18+x41 <=1 
C615: x18+x42-y18_42 <=1 
C616: x18+x43-y18_43 <=1 
C617: x18+x44-y18_44 <=1 
C618: x18+x45 <=1 
C619: x18+x48 <=1 
C620: x18+x50-y18_50 <=1 
C621: x18+x51 <=1 
C622: x18+x52 <=1 
C623: x18+x56-y18_56 <=1 
C624: x18+x57 <=1 
C625: x18+x58 <=1 
C626: x18+x60 <=1 
C627: x19+x20 <=1 
C628: x19+x23 <=1 
C629: x19+x25 <=1 
C630: x19+x26 <=1 
C631: x19+x27 <=1 
C632: x19+x30 <=1 
C633: x19+x31-y19_31 <=1 
C634: x19+x32 <=1 
C635: x19+x33 <=1 
C636: x19+x37-y19_37 <=1 
C637: x19+x39 <=1 
C638: x19+x40-y19_40 <=1 
C639: x19+x44 <=1 
C640: x19+x46-y19_46 <=1 
C641: x19+x47-y19_47 <=1 
C642: x19+x48-y19_48 <=1 
C643: x19+x49-y19_49 <=1 
C644: x19+x50 <=1 
C645: x19+x52-y19_52 <=1 
C646: x19+x53-y19_53 <=1 
C647: x19+x54-y19_54 <=1 
C648: x19+x55-y19_55 <=1 
C649: x19+x57 <=1 
C650: x19+x58 <=1 
C651: x19+x59 <=1 
C652: x20+x23-y20_23 <=1 
C653: x20+x24 <=1 
C654: x20+x25-y20_25 <=1 
C655: x20+x26 <=1 
C656: x20+x27-y20_27 <=1 
C657: x20+x28 <=1 
C658: x20+x29-y20_29 <=1 
C659: x20+x32 <=1 
C660: x20+x33-y20_33 <=1 
C661: x20+x34-y20_34 <=1 
C662: x20+x38 <=1 
C663: x20+x39-y20_39 <=1 
C664: x20+x40-y20_40 <=1 
C665: x20+x43 <=1 
C666: x20+x45 <=1 
C667: x20+x48 <=1 
C668: x20+x53-y20_53 <=1 
C669: x20+x54-y20_54 <=1 
C670: x20+x56-y20_56 <=1 
C671: x20+x58 <=1 
C672: x20+x59 <=1 
C673: x20+x60-y20_60 <=1 
C674: x21+x24-y21_24 <=1 
C675: x21+x26-y21_26 <=1 
C676: x21+x27-y21_27 <=1 
C677: x21+x28 <=1 
C678: x21+x31 <=1 
C679: x21+x36-y21_36 <=1 
C680: x21+x37 <=1 
C681: x21+x38 <=1 
C682: x21+x39 <=1 
C683: x21+x42 <=1 
C684: x21+x43-y21_43 <=1 
C685: x21+x44 <=1 
C686: x21+x45 <=1 
C687: x21+x46-y21_46 <=1 
C688: x21+x48-y21_48 <=1 
C689: x21+x51-y21_51 <=1 
C690: x21+x55-y21_55 <=1 
C691: x21+x57 <=1 
C692: x21+x58 <=1 
C693: x22+x25-y22_25 <=1 
C694: x22+x28-y22_28 <=1 
C695: x22+x29-y22_29 <=1 
C696: x22+x30-y22_30 <=1 
C697: x22+x31 <=1 
C698: x22+x32 <=1 
C699: x22+x35-y22_35 <=1 
C700: x22+x37-y22_37 <=1 
C701: x22+x38 <=1 
C702: x22+x39-y22_39 <=1 
C703: x22+x42 <=1 
C704: x22+x43-y22_43 <=1 
C705: x22+x44-y22_44 <=1 
C706: x22+x46 <=1 
C707: x22+x47-y22_47 <=1 
C708: x22+x49-y22_49 <=1 
C709: x22+x50 <=1 
C710: x22+x52-y22_52 <=1 
C711: x22+x53-y22_53 <=1 
C712: x22+x54 <=1 
C713: x22+x55 <=1 
C714: x22+x56 <=1 
C715: x22+x57-y22_57 <=1 
C716: x22+x58-y22_58 <=1 
C717: x22+x59-y22_59 <=1 
C718: x22+x60-y22_60 <=1 
C719: x23+x24 <=1 
C720: x23+x25-y23_25 <=1 
C721: x23+x27 <=1 
C722: x23+x28-y23_28 <=1 
C723: x23+x29-y23_29 <=1 
C724: x23+x30 <=1 
C725: x23+x32 <=1 
C726: x23+x34 <=1 
C727: x23+x35-y23_35 <=1 
C728: x23+x36 <=1 
C729: x23+x37-y23_37 <=1 
C730: x23+x38-y23_38 <=1 
C731: x23+x39-y23_39 <=1 
C732: x23+x40-y23_40 <=1 
C733: x23+x42 <=1 
C734: x23+x49 <=1 
C735: x23+x50-y23_50 <=1 
C736: x23+x52 <=1 
C737: x23+x53 <=1 
C738: x23+x54 <=1 
C739: x23+x56 <=1 
C740: x23+x57 <=1 
C741: x23+x58-y23_58 <=1 
C742: x23+x59 <=1 
C743: x24+x25-y24_25 <=1 
C744: x24+x26 <=1 
C745: x24+x27 <=1 
C746: x24+x28 <=1 
C747: x24+x29-y24_29 <=1 
C748: x24+x30 <=1 
C749: x24+x31-y24_31 <=1 
C750: x24+x32 <=1 
C751: x24+x34-y24_34 <=1 
C752: x24+x35-y24_35 <=1 
C753: x24+x37-y24_37 <=1 
C754: x24+x39 <=1 
C755: x24+x41 <=1 
C756: x24+x42-y24_42 <=1 
C757: x24+x43 <=1 
C758: x24+x45 <=1 
C759: x24+x46-y24_46 <=1 
C760: x24+x47 <=1 
C761: x24+x48 <=1 
C762: x24+x52-y24_52 <=1 
C763: x24+x53-y24_53 <=1 
C764: x24+x54 <=1 
C765: x24+x56-y24_56 <=1 
C766: x24+x60-y24_60 <=1 
C767: x25+x26 <=1 
C768: x25+x27 <=1 
C769: x25+x29-y25_29 <=1 
C770: x25+x30-y25_30 <=1 
C771: x25+x31 <=1 
C772: x25+x32 <=1 
C773: x25+x35-y25_35 <=1 
C774: x25+x37-y25_37 <=1 
C775: x25+x39 <=1 
C776: x25+x40 <=1 
C777: x25+x41 <=1 
C778: x25+x42-y25_42 <=1 
C779: x25+x43 <=1 
C780: x25+x44-y25_44 <=1 
C781: x25+x46-y25_46 <=1 
C782: x25+x48 <=1 
C783: x25+x50-y25_50 <=1 
C784: x25+x51-y25_51 <=1 
C785: x25+x53 <=1 
C786: x26+x27 <=1 
C787: x26+x28-y26_28 <=1 
C788: x26+x29-y26_29 <=1 
C789: x26+x31 <=1 
C790: x26+x32 <=1 
C791: x26+x35 <=1 
C792: x26+x37 <=1 
C793: x26+x40 <=1 
C794: x26+x41 <=1 
C795: x26+x44 <=1 
C796: x26+x45 <=1 
C797: x26+x47-y26_47 <=1 
C798: x26+x48-y26_48 <=1 
C799: x26+x50-y26_50 <=1 
C800: x26+x51-y26_51 <=1 
C801: x26+x52 <=1 
C802: x26+x53 <=1 
C803: x26+x54-y26_54 <=1 
C804: x26+x58 <=1 
C805: x26+x60-y26_60 <=1 
C806: x27+x28-y27_28 <=1 
C807: x27+x29 <=1 
C808: x27+x30-y27_30 <=1 
C809: x27+x33 <=1 
C810: x27+x35-y27_35 <=1 
C811: x27+x37-y27_37 <=1 
C812: x27+x38-y27_38 <=1 
C813: x27+x41-y27_41 <=1 
C814: x27+x42 <=1 
C815: x27+x43 <=1 
C816: x27+x44-y27_44 <=1 
C817: x27+x46 <=1 
C818: x27+x53 <=1 
C819: x27+x56 <=1 
C820: x27+x57 <=1 
C821: x28+x30-y28_30 <=1 
C822: x28+x31 <=1 
C823: x28+x32 <=1 
C824: x28+x33-y28_33 <=1 
C825: x28+x36 <=1 
C826: x28+x37-y28_37 <=1 
C827: x28+x38 <=1 
C828: x28+x40-y28_40 <=1 
C829: x28+x41-y28_41 <=1 
C830: x28+x42 <=1 
C831: x28+x45-y28_45 <=1 
C832: x28+x46 <=1 
C833: x28+x47-y28_47 <=1 
C834: x28+x49 <=1 
C835: x28+x53 <=1 
C836: x28+x55-y28_55 <=1 
C837: x28+x56-y28_56 <=1 
C838: x28+x57-y28_57 <=1 
C839: x29+x30-y29_30 <=1 
C840: x29+x31-y29_31 <=1 
C841: x29+x32 <=1 
C842: x29+x33 <=1 
C843: x29+x34-y29_34 <=1 
C844: x29+x35 <=1 
C845: x29+x36 <=1 
C846: x29+x37 <=1 
C847: x29+x38 <=1 
C848: x29+x39 <=1 
C849: x29+x41 <=1 
C850: x29+x42 <=1 
C851: x29+x43-y29_43 <=1 
C852: x29+x47 <=1 
C853: x29+x48 <=1 
C854: x29+x49-y29_49 <=1 
C855: x29+x53 <=1 
C856: x29+x55 <=1 
C857: x29+x56 <=1 
C858: x29+x57 <=1 
C859: x29+x59-y29_59 <=1 
C860: x30+x32 <=1 
C861: x30+x33 <=1 
C862: x30+x34 <=1 
C863: x30+x35-y30_35 <=1 
C864: x30+x37-y30_37 <=1 
C865: x30+x38 <=1 
C866: x30+x39-y30_39 <=1 
C867: x30+x41 <=1 
C868: x30+x43 <=1 
C869: x30+x44-y30_44 <=1 
C870: x30+x46 <=1 
C871: x30+x49-y30_49 <=1 
C872: x30+x50 <=1 
C873: x30+x52 <=1 
C874: x30+x54-y30_54 <=1 
C875: x30+x55-y30_55 <=1 
C876: x30+x56-y30_56 <=1 
C877: x30+x57 <=1 
C878: x31+x32 <=1 
C879: x31+x33 <=1 
C880: x31+x36 <=1 
C881: x31+x37 <=1 
C882: x31+x38 <=1 
C883: x31+x40 <=1 
C884: x31+x41-y31_41 <=1 
C885: x31+x42 <=1 
C886: x31+x43-y31_43 <=1 
C887: x31+x45-y31_45 <=1 
C888: x31+x46 <=1 
C889: x31+x51-y31_51 <=1 
C890: x31+x53 <=1 
C891: x31+x54-y31_54 <=1 
C892: x31+x55 <=1 
C893: x31+x56 <=1 
C894: x31+x57 <=1 
C895: x31+x58-y31_58 <=1 
C896: x31+x60 <=1 
C897: x32+x33-y32_33 <=1 
C898: x32+x37-y32_37 <=1 
C899: x32+x38-y32_38 <=1 
C900: x32+x41-y32_41 <=1 
C901: x32+x43-y32_43 <=1 
C902: x32+x45 <=1 
C903: x32+x46-y32_46 <=1 
C904: x32+x47-y32_47 <=1 
C905: x32+x51 <=1 
C906: x32+x52-y32_52 <=1 
C907: x32+x53-y32_53 <=1 
C908: x32+x56 <=1 
C909: x32+x57 <=1 
C910: x32+x58-y32_58 <=1 
C911: x32+x60 <=1 
C912: x33+x35 <=1 
C913: x33+x38 <=1 
C914: x33+x39-y33_39 <=1 
C915: x33+x40-y33_40 <=1 
C916: x33+x41 <=1 
C917: x33+x42-y33_42 <=1 
C918: x33+x45 <=1 
C919: x33+x47-y33_47 <=1 
C920: x33+x49-y33_49 <=1 
C921: x33+x51 <=1 
C922: x33+x54-y33_54 <=1 
C923: x33+x55 <=1 
C924: x33+x56-y33_56 <=1 
C925: x33+x58 <=1 
C926: x33+x59-y33_59 <=1 
C927: x34+x35-y34_35 <=1 
C928: x34+x36-y34_36 <=1 
C929: x34+x38-y34_38 <=1 
C930: x34+x39-y34_39 <=1 
C931: x34+x40 <=1 
C932: x34+x42 <=1 
C933: x34+x43 <=1 
C934: x34+x45-y34_45 <=1 
C935: x34+x46-y34_46 <=1 
C936: x34+x48-y34_48 <=1 
C937: x34+x49 <=1 
C938: x34+x50-y34_50 <=1 
C939: x34+x52-y34_52 <=1 
C940: x34+x53 <=1 
C941: x34+x54 <=1 
C942: x34+x58 <=1 
C943: x34+x59-y34_59 <=1 
C944: x34+x60 <=1 
C945: x35+x39 <=1 
C946: x35+x40-y35_40 <=1 
C947: x35+x41-y35_41 <=1 
C948: x35+x42-y35_42 <=1 
C949: x35+x43-y35_43 <=1 
C950: x35+x44 <=1 
C951: x35+x45 <=1 
C952: x35+x46 <=1 
C953: x35+x47 <=1 
C954: x35+x50 <=1 
C955: x35+x51 <=1 
C956: x35+x52-y35_52 <=1 
C957: x35+x53-y35_53 <=1 
C958: x35+x54 <=1 
C959: x35+x55 <=1 
C960: x35+x56-y35_56 <=1 
C961: x35+x57 <=1 
C962: x35+x58 <=1 
C963: x35+x60-y35_60 <=1 
C964: x36+x37 <=1 
C965: x36+x38 <=1 
C966: x36+x39 <=1 
C967: x36+x40 <=1 
C968: x36+x42 <=1 
C969: x36+x43-y36_43 <=1 
C970: x36+x45-y36_45 <=1 
C971: x36+x46-y36_46 <=1 
C972: x36+x47 <=1 
C973: x36+x51-y36_51 <=1 
C974: x36+x55-y36_55 <=1 
C975: x36+x56 <=1 
C976: x36+x59 <=1 
C977: x37+x38 <=1 
C978: x37+x40-y37_40 <=1 
C979: x37+x41-y37_41 <=1 
C980: x37+x42 <=1 
C981: x37+x43 <=1 
C982: x37+x45-y37_45 <=1 
C983: x37+x47-y37_47 <=1 
C984: x37+x48-y37_48 <=1 
C985: x37+x49-y37_49 <=1 
C986: x37+x50-y37_50 <=1 
C987: x37+x52-y37_52 <=1 
C988: x37+x53-y37_53 <=1 
C989: x37+x55 <=1 
C990: x37+x58-y37_58 <=1 
C991: x37+x59 <=1 
C992: x37+x60 <=1 
C993: x38+x39-y38_39 <=1 
C994: x38+x40-y38_40 <=1 
C995: x38+x42-y38_42 <=1 
C996: x38+x43-y38_43 <=1 
C997: x38+x44 <=1 
C998: x38+x45-y38_45 <=1 
C999: x38+x46 <=1 
C1000: x38+x47 <=1 
C1001: x38+x48 <=1 
C1002: x38+x49 <=1 
C1003: x38+x51-y38_51 <=1 
C1004: x38+x52-y38_52 <=1 
C1005: x38+x53-y38_53 <=1 
C1006: x38+x57-y38_57 <=1 
C1007: x38+x59 <=1 
C1008: x38+x60 <=1 
C1009: x39+x40 <=1 
C1010: x39+x41-y39_41 <=1 
C1011: x39+x42 <=1 
C1012: x39+x43 <=1 
C1013: x39+x44 <=1 
C1014: x39+x45 <=1 
C1015: x39+x46 <=1 
C1016: x39+x49-y39_49 <=1 
C1017: x39+x50-y39_50 <=1 
C1018: x39+x52-y39_52 <=1 
C1019: x39+x55-y39_55 <=1 
C1020: x39+x56-y39_56 <=1 
C1021: x39+x58 <=1 
C1022: x40+x41-y40_41 <=1 
C1023: x40+x43-y40_43 <=1 
C1024: x40+x45 <=1 
C1025: x40+x46-y40_46 <=1 
C1026: x40+x47 <=1 
C1027: x40+x52 <=1 
C1028: x40+x54-y40_54 <=1 
C1029: x40+x56 <=1 
C1030: x40+x57-y40_57 <=1 
C1031: x40+x60-y40_60 <=1 
C1032: x41+x43 <=1 
C1033: x41+x45 <=1 
C1034: x41+x48 <=1 
C1035: x41+x49 <=1 
C1036: x41+x51-y41_51 <=1 
C1037: x41+x52 <=1 
C1038: x41+x53 <=1 
C1039: x41+x57-y41_57 <=1 
C1040: x41+x58-y41_58 <=1 
C1041: x41+x59 <=1 
C1042: x41+x60-y41_60 <=1 
C1043: x42+x43-y42_43 <=1 
C1044: x42+x45 <=1 
C1045: x42+x46-y42_46 <=1 
C1046: x42+x48 <=1 
C1047: x42+x49 <=1 
C1048: x42+x50 <=1 
C1049: x42+x52-y42_52 <=1 
C1050: x42+x53-y42_53 <=1 
C1051: x42+x54 <=1 
C1052: x42+x55 <=1 
C1053: x42+x58-y42_58 <=1 
C1054: x43+x44-y43_44 <=1 
C1055: x43+x45-y43_45 <=1 
C1056: x43+x46-y43_46 <=1 
C1057: x43+x47 <=1 
C1058: x43+x49-y43_49 <=1 
C1059: x43+x51-y43_51 <=1 
C1060: x43+x54 <=1 
C1061: x43+x58-y43_58 <=1 
C1062: x43+x59-y43_59 <=1 
C1063: x44+x46 <=1 
C1064: x44+x48 <=1 
C1065: x44+x51 <=1 
C1066: x44+x52 <=1 
C1067: x44+x56-y44_56 <=1 
C1068: x44+x57 <=1 
C1069: x44+x58 <=1 
C1070: x44+x59-y44_59 <=1 
C1071: x44+x60-y44_60 <=1 
C1072: x45+x48 <=1 
C1073: x45+x49-y45_49 <=1 
C1074: x45+x50-y45_50 <=1 
C1075: x45+x51 <=1 
C1076: x45+x52 <=1 
C1077: x45+x53-y45_53 <=1 
C1078: x45+x54 <=1 
C1079: x45+x56-y45_56 <=1 
C1080: x45+x58-y45_58 <=1 
C1081: x45+x59 <=1 
C1082: x46+x47 <=1 
C1083: x46+x52-y46_52 <=1 
C1084: x46+x53-y46_53 <=1 
C1085: x46+x54 <=1 
C1086: x46+x55 <=1 
C1087: x46+x57 <=1 
C1088: x46+x58-y46_58 <=1 
C1089: x46+x59 <=1 
C1090: x46+x60-y46_60 <=1 
C1091: x47+x48 <=1 
C1092: x47+x49 <=1 
C1093: x47+x50 <=1 
C1094: x47+x51 <=1 
C1095: x47+x54-y47_54 <=1 
C1096: x47+x55-y47_55 <=1 
C1097: x47+x56-y47_56 <=1 
C1098: x47+x57-y47_57 <=1 
C1099: x47+x58-y47_58 <=1 
C1100: x47+x59-y47_59 <=1 
C1101: x47+x60-y47_60 <=1 
C1102: x48+x49-y48_49 <=1 
C1103: x48+x50-y48_50 <=1 
C1104: x48+x52 <=1 
C1105: x48+x58 <=1 
C1106: x48+x59-y48_59 <=1 
C1107: x48+x60 <=1 
C1108: x49+x56 <=1 
C1109: x49+x57 <=1 
C1110: x49+x58-y49_58 <=1 
C1111: x49+x59-y49_59 <=1 
C1112: x50+x53-y50_53 <=1 
C1113: x50+x54-y50_54 <=1 
C1114: x50+x58 <=1 
C1115: x50+x59-y50_59 <=1 
C1116: x50+x60 <=1 
C1117: x51+x52-y51_52 <=1 
C1118: x51+x53 <=1 
C1119: x51+x54-y51_54 <=1 
C1120: x51+x55-y51_55 <=1 
C1121: x51+x59 <=1 
C1122: x51+x60 <=1 
C1123: x52+x53 <=1 
C1124: x52+x56 <=1 
C1125: x52+x58 <=1 
C1126: x52+x59 <=1 
C1127: x53+x55-y53_55 <=1 
C1128: x53+x56 <=1 
C1129: x53+x57-y53_57 <=1 
C1130: x53+x58 <=1 
C1131: x53+x59-y53_59 <=1 
C1132: x53+x60-y53_60 <=1 
C1133: x54+x56-y54_56 <=1 
C1134: x54+x57 <=1 
C1135: x54+x59 <=1 
C1136: x55+x56 <=1 
C1137: x55+x57 <=1 
C1138: x55+x59-y55_59 <=1 
C1139: x55+x60-y55_60 <=1 
C1140: x56+x57-y56_57 <=1 
C1141: x56+x58 <=1 
C1142: x56+x60-y56_60 <=1 
C1143: x57+x58 <=1 
C1144: x57+x59 <=1 
C1145: x57+x60 <=1 

binary
x0
x1
x2
x3
x4
x5
x6
x7
x8
x9
x10
x11
x12
x13
x14
x15
x16
x17
x18
x19
x20
x21
x22
x23
x24
x25
x26
x27
x28
x29
x30
x31
x32
x33
x34
x35
x36
x37
x38
x39
x40
x41
x42
x43
x44
x45
x46
x47
x48
x49
x50
x51
x52
x53
x54
x55
x56
x57
x58
x59
x60
