problem_generation/data/GISP/train/er_n=61_m=1145_p=0.60_SET2_setparam=100.00_alpha=0.50_678.sol
objective value:                                 1171
x10                                                 1 	(obj:100)
x12                                                 1 	(obj:100)
x13                                                 1 	(obj:100)
x14                                                 1 	(obj:100)
x22                                                 1 	(obj:100)
x25                                                 1 	(obj:100)
x28                                                 1 	(obj:100)
x29                                                 1 	(obj:100)
x30                                                 1 	(obj:100)
x45                                                 1 	(obj:100)
x58                                                 1 	(obj:100)
x60                                                 1 	(obj:100)
y22_28                                              1 	(obj:-1)
y10_22                                              1 	(obj:-1)
y25_29                                              1 	(obj:-1)
y14_28                                              1 	(obj:-1)
y10_30                                              1 	(obj:-1)
y29_30                                              1 	(obj:-1)
y10_25                                              1 	(obj:-1)
y13_45                                              1 	(obj:-1)
y22_60                                              1 	(obj:-1)
y14_45                                              1 	(obj:-1)
y22_58                                              1 	(obj:-1)
y10_29                                              1 	(obj:-1)
y22_30                                              1 	(obj:-1)
y22_25                                              1 	(obj:-1)
y10_28                                              1 	(obj:-1)
y14_25                                              1 	(obj:-1)
y28_45                                              1 	(obj:-1)
y12_60                                              1 	(obj:-1)
y13_29                                              1 	(obj:-1)
y10_13                                              1 	(obj:-1)
y28_30                                              1 	(obj:-1)
y12_45                                              1 	(obj:-1)
y13_28                                              1 	(obj:-1)
y12_13                                              1 	(obj:-1)
y12_30                                              1 	(obj:-1)
y22_29                                              1 	(obj:-1)
y45_58                                              1 	(obj:-1)
y25_30                                              1 	(obj:-1)
y14_29                                              1 	(obj:-1)
